#######################################
### Exact MIP solver for the HHCRSP ###
#######################################
-- Instance file: new-instances/HHCRSP_75_15_68_1.0_R_R.txt
-- Max threads: 4
-- Time limit: 999999 seconds
-- Use initial solution: No
Trivial flow violations prevented generating 20173 variables.
Model exported.
Version identifier: 20.1.0.0 | 2020-11-10 | 9bedb6d68
CPXPARAM_Threads                                 4
CPXPARAM_TimeLimit                               999999
Parallel mode: deterministic, using up to 4 threads for concurrent optimization:
 * Starting dual Simplex on 1 thread...
 * Starting Barrier on 3 threads...
Tried aggregator 1 time.
LP Presolve eliminated 3534 rows and 1048 columns.
Reduced LP has 28162 rows, 27058 columns, and 291123 nonzeros.
Presolve time = 0.13 sec. (77.77 ticks)
Symmetry aggregator did 33312 additional substitutions.

Iteration log . . .
Iteration:     1   Dual objective     =             0.000000

Dual crossover.
  Dual:  Fixing 177 variables.
      176 DMoves:  Infeasibility  5.20694658e-14  Objective  1.78000000e+02
        0 DMoves:  Infeasibility  2.47024682e-14  Objective  1.78000000e+02
  Dual:  Pushed 11, exchanged 166.
  Primal:  Fixing 107 variables.
      106 PMoves:  Infeasibility  1.49880108e-15  Objective  1.78000000e+02
        0 PMoves:  Infeasibility  1.49880108e-15  Objective  1.78000000e+02
  Primal:  Pushed 73, exchanged 34.

Dual simplex solved model.


Solution status from MIP model:
-- Processing time: 0.248 sec.
-- Memory used: 88.2012 MB
-- Best bound: inf
-- Obj value: 178
-- Gap: inf%
-- Total distance: 534
-- Total tardiness: 0
-- Largest tardiness: 0
